469,194
918,369
822,600
633,371
795,443
744,469
762,246
947,599
885,6
267,341
452,91
470,115
909,332
1020,160
681,946
817,673
1011,406
892,697
893,618
721,486
435,745
1036,462
935,152
635,264
469,194
778,336
245,723
898,-21
563,388
723,364
945,770
892,115
